(set-logic SLIA)
(define-fun func0  ((A String) (B Int) ) String (str.substr A  0  B ))
(define-fun func1  ((A String) (B String) (C Int) ) String (str.substr A  0  (str.indexof A  B  C )))
(define-fun func2  ((A String) (B String) (C String) (D Int) ) String (str.substr A  0  (str.indexof B  C  D )))
(define-fun func3  ((A String) ) String (str.substr A  0  1 ))
(define-fun func4  ((A String) (B Int) (C String) (D Int) ) String (str.substr A  (+ 1  (str.indexof A  C  D )) B ))
(define-fun func5  ((A String) (B Int) (C String) ) String (str.substr A  (+ 1  (str.indexof A  C  0 )) B ))
(define-fun func6  ((A String) (B Int) (C String) (D String) (E Int) ) String (str.substr A  (+ 1  (str.indexof C  D  E )) B ))
(define-fun func7  ((A String) (B Int) (C String) (D String) ) String (str.substr A  (+ 1  (str.indexof C  D  0 )) B ))
(define-fun func8  ((A String) (B Int) (C Int) ) String (str.substr A  (+ 1  C ) B ))
(define-fun func9  ((A String) (B Int) (C Int) (D String) (E Int) ) String (str.substr A  (+ C  (str.indexof A  D  E )) B ))
(define-fun func10  ((A String) (B Int) (C Int) (D String) ) String (str.substr A  (+ C  (str.indexof A  D  0 )) B ))
(define-fun func11  ((A String) (B Int) (C Int) (D String) (E String) (F Int) ) String (str.substr A  (+ C  (str.indexof D  E  F )) B ))
(define-fun func12  ((A String) (B Int) (C Int) (D String) (E String) ) String (str.substr A  (+ C  (str.indexof D  E  0 )) B ))
(define-fun func13  ((A String) (B Int) (C Int) (D Int) ) String (str.substr A  (+ C  D ) B ))
(define-fun func14  ((A String) (B Int) (C Int) ) String (str.substr A  (+ B  C ) 3 ))
(define-fun func15  ((A String) (B Int) ) String (str.substr A  1  B ))
(define-fun func16  ((A String) (B Int) (C Int) (D Int) ) String (str.substr A  (- C  D ) B ))
(define-fun func17  ((A String) (B Int) (C String) (D Int) ) String (str.substr A  B  (str.indexof A  C  D )))
(define-fun func18  ((A String) (B Int) (C String) (D String) (E Int) ) String (str.substr A  B  (str.indexof C  D  E )))
(define-fun func19  ((A String) (B Int) ) String (str.substr A  B  1 ))
(define-fun func20  ((A String) (B Int) (C Int) (D Int) ) String (str.substr A  B  (- C  D )))
(define-fun func21  ((A String) (B Int) ) String (str.substr A  B  (str.len A )))
(define-fun func22  ((A String) (B Int) ) String (str.substr A  B  3 ))
(define-fun func23  ((A String) (B Int) (C String) (D String) ) String (str.substr A  B  (str.indexof C  D  1 )))
(define-fun func24  ((A String) (B Int) (C String) ) String (str.substr A  B  (str.len C )))
(define-fun func25  ((A Int) ) Int (+ -1  A ))
(define-fun func26  ((A Int) ) Int (+ 1  A ))
(define-fun func27  ((A String) (B String) (C Int) ) Int (+ 1  (str.indexof A  B  C )))
(define-fun func28  ((A String) (B String) ) Int (+ 1  (str.indexof A  B  0 )))
(define-fun func29  ((A Int) (B String) (C String) (D Int) ) Int (+ A  (str.indexof B  C  D )))
(define-fun func30  ((A Int) (B String) (C String) ) Int (+ A  (str.indexof B  C  0 )))
(define-fun func31  ((A Int) (B String) (C String) ) Int (+ A  (str.indexof B  C  1 )))
(define-fun func32  ((A String) (B String) ) Int (str.indexof A  B  0 ))
(define-fun func33  ((A String) (B String) ) Int (str.indexof A  B  1 ))
(define-fun func34  ((A String) (B String) (C String) ) String (str.++ A  (str.++ B  C )))
(define-fun func35  ((A String) (B String) (C Int) (D Int) ) String (str.++ (str.substr B  C  D ) A ))
(define-fun func36  ((A String) (B String) (C Int) ) String (str.++ (str.substr B  0  C ) A ))
(define-fun func37  ((A String) (B String) ) String (str.++ (str.substr B  0  1 ) A ))
(define-fun func38  ((A String) (B String) (C Int) ) String (str.++ (str.substr B  C  1 ) A ))
(define-fun func39  ((A String) (B Int) (C Int) (D String) (E String) ) String (str.++ (str.substr A  B  C ) (str.++ D  E )))
(define-fun func40  ((A String) (B String) (C String) ) String (str.++ (str.++ B  C ) A ))
(define-fun func41  ((A String) (B String) (C Int) (D Int) ) String (str.++ A  (str.substr B  C  D )))
(define-fun func42  ((A String) (B String) (C String) (D String) ) String (str.++ A  (str.++ B  (str.++ C  D ))))
(define-fun func43  ((A String) (B String) (C String) (D Int) (E Int) ) String (str.++ A  (str.++ (str.substr C  D  E ) B )))
(define-fun func44  ((A String) (B String) (C String) (D Int) ) String (str.++ A  (str.++ (str.substr C  0  D ) B )))
(define-fun func45  ((A String) (B String) (C String) (D Int) (E Int) ) String (str.++ A  (str.++ B  (str.substr C  D  E ))))
(define-fun func46  ((A Int) (B String) (C String) (D Int) ) Int (- (str.indexof B  C  D ) A ))
(define-fun func47  ((A Int) (B String) ) Int (- (str.len B ) A ))
(define-fun func48  ((A Int) ) Int (- A  3 ))
(define-fun func49  ((A String) (B String) (C String) (D Int) (E Int) ) String (str.replace (str.substr C  D  E ) A  B ))
(define-fun func50  ((A String) (B String) (C String) (D String) (E String) ) String (str.replace (str.replace C  D  E ) A  B ))
(synth-fun f ((_arg_0 String) (_arg_1 Int)) String
( (Start String (ntString))
 (ntString String (
	_arg_0 "" " " "_" 
	(func1 ntString ntString ntInt)
	(func4 ntString ntInt ntString ntInt)
	(func8 ntString ntInt ntInt)
	(func15 ntString ntInt)
	(func16 ntString ntInt ntInt ntInt)
	(func17 ntString ntInt ntString ntInt)
	(func19 ntString ntInt)
	(func20 ntString ntInt ntInt ntInt)
	(func23 ntString ntInt ntString ntString)
	(func37 ntString ntString)
	(func39 ntString ntInt ntInt ntString ntString)
	(func40 ntString ntString ntString)
	(func42 ntString ntString ntString ntString)
	(func43 ntString ntString ntString ntInt ntInt)
	(func44 ntString ntString ntString ntInt)
	(str.++ ntString ntString)
	(str.replace ntString ntString ntString)
	(str.substr ntString ntInt ntInt)
))
 (ntInt Int (
	_arg_1 1 0 -1 1 2 
	(func25 ntInt)
	(func26 ntInt)
	(func27 ntString ntString ntInt)
	(func48 ntInt)
	(+ ntInt ntInt)
	(str.len ntString)
	(str.to.int ntString)
	(ite ntBool ntInt ntInt)
	(str.indexof ntString ntString ntInt)
))
 (ntBool Bool (
	true false
	(= ntInt ntInt)
	(str.contains ntString ntString)
))
))
(constraint (= (f "011016_assignment.xlsx" 1) "011016"))
(constraint (= (f "011016_assignment.xlsx" 2) "assignment.xlsx"))
(constraint (= (f "030116_cost.xlsx" 1) "030116"))
(constraint (= (f "030116_cost.xlsx" 2) "cost.xlsx"))
(check-synth)
